CPXPARAM_MIP_Tolerances_MIPGap                   0
Tried aggregator 1 time.
MIP Presolve eliminated 157 rows and 8 columns.
MIP Presolve modified 364 coefficients.
Reduced MIP has 771 rows, 472 columns, and 2156 nonzeros.
Reduced MIP has 323 binaries, 0 generals, 0 SOSs, and 0 indicators.
Presolve time = 0.00 sec. (1.79 ticks)
Found incumbent of value 24.000000 after 0.00 sec. (3.98 ticks)
Probing time = 0.02 sec. (2.67 ticks)
Tried aggregator 1 time.
MIP Presolve modified 3 coefficients.
Reduced MIP has 771 rows, 472 columns, and 2156 nonzeros.
Reduced MIP has 323 binaries, 0 generals, 0 SOSs, and 0 indicators.
Presolve time = 0.00 sec. (1.29 ticks)
Probing time = 0.00 sec. (2.63 ticks)
Clique table members: 524.
MIP emphasis: balance optimality and feasibility.
MIP search method: dynamic search.
Parallel mode: deterministic, using up to 8 threads.
Root relaxation solution time = 0.00 sec. (1.94 ticks)

        Nodes                                         Cuts/
   Node  Left     Objective  IInf  Best Integer    Best Bound    ItCnt     Gap

*     0+    0                           24.0000        8.0000            66.67%
*     0+    0                           18.0000        8.0000            55.56%
*     0+    0                           14.0000        8.0000            42.86%
      0     0        8.0000     4       14.0000        8.0000       57   42.86%
*     0+    0                           10.0000        8.0000            20.00%
      0     0        cutoff             10.0000                     57    0.00%
Elapsed time = 0.05 sec. (15.47 ticks, tree = 0.01 MB, solutions = 4)

Root node processing (before b&c):
  Real time             =    0.05 sec. (15.51 ticks)
Parallel b&c, 8 threads:
  Real time             =    0.00 sec. (0.00 ticks)
  Sync time (average)   =    0.00 sec.
  Wait time (average)   =    0.00 sec.
                          ------------
Total (root+branch&cut) =    0.05 sec. (15.51 ticks)
